============================[ Problem Statistics ]=============================|                                                                             ||  Number of variables:          4242                                         ||  Number of clauses:            9772                                         ||  Parse time:                   0.17 s                                       ||                                                                             |============================[ Search Statistics ]==============================| Conflicts |          ORIGINAL         |          LEARNT          | Progress ||           |    Vars  Clauses Literals |    Limit  Clauses Lit/Cl |          |===============================================================================|       100 |    1591     5977   256808 |     2191      100     53 | 62.501 % |===============================================================================restarts              : 2conflicts             : 104            (344 /sec)decisions             : 277            (0.00 % random) (917 /sec)propagations          : 9858           (32642 /sec)conflict literals     : 5618           (95.94 % deleted)CPU time              : 0.302 sSATISFIABLE